NAME: random-81-20086
TYPE: TSP
COMMENT: size=81 seed=20086
DIMENSION: 164
EDGE_WEIGHT_TYPE: EUC_2D
NODE_COORD_SECTION
+0 402 40
-0 402 40
+1 433 886
-1 16 663
+2 710 196
-2 999 686
+3 882 594
-3 651 825
+4 562 56
-4 693 358
+5 963 816
-5 964 366
+6 748 37
-6 505 210
+7 491 462
-7 594 113
+8 695 371
-8 412 414
+9 765 943
-9 259 920
+10 748 247
-10 593 139
+11 68 97
-11 119 636
+12 65 747
-12 521 193
+13 463 97
-13 696 572
+14 180 446
-14 66 906
+15 102 225
-15 824 88
+16 287 824
-16 807 254
+17 316 31
-17 749 761
+18 55 80
-18 310 788
+19 118 861
-19 685 444
+20 221 938
-20 348 370
+21 429 455
-21 841 954
+22 261 619
-22 267 234
+23 80 929
-23 841 852
+24 357 388
-24 45 463
+25 662 636
-25 10 301
+26 493 934
-26 523 181
+27 386 980
-27 91 456
+28 137 573
-28 760 917
+29 989 683
-29 563 939
+30 291 697
-30 264 1
+31 237 969
-31 532 334
+32 965 166
-32 60 631
+33 759 77
-33 359 417
+34 831 171
-34 988 838
+35 496 536
-35 478 77
+36 726 70
-36 384 532
+37 402 152
-37 552 740
+38 613 670
-38 480 745
+39 239 953
-39 388 726
+40 812 373
-40 25 166
+41 325 267
-41 718 340
+42 419 997
-42 591 401
+43 621 189
-43 315 54
+44 246 363
-44 268 627
+45 170 314
-45 936 43
+46 306 129
-46 106 478
+47 50 843
-47 529 434
+48 37 303
-48 643 176
+49 89 223
-49 266 164
+50 798 82
-50 279 66
+51 106 373
-51 508 34
+52 715 690
-52 357 960
+53 764 981
-53 312 168
+54 787 845
-54 440 949
+55 798 680
-55 588 813
+56 99 214
-56 247 213
+57 640 969
-57 368 388
+58 609 259
-58 815 670
+59 139 464
-59 971 95
+60 345 826
-60 200 822
+61 720 716
-61 140 293
+62 453 606
-62 467 869
+63 637 719
-63 69 684
+64 382 23
-64 732 604
+65 401 335
-65 121 753
+66 679 863
-66 779 377
+67 66 447
-67 387 446
+68 190 687
-68 910 207
+69 940 176
-69 505 351
+70 224 563
-70 400 939
+71 750 911
-71 548 531
+72 571 970
-72 188 398
+73 137 783
-73 718 675
+74 149 736
-74 170 75
+75 910 683
-75 971 695
+76 349 479
-76 147 416
+77 144 602
-77 878 589
+78 27 466
-78 521 236
+79 871 337
-79 552 938
+80 689 334
-80 17 317
+81 374 980
-81 511 578
PRECEDENCE_SECTION
+0 -0
+1 -1
+2 -2
+3 -3
+4 -4
+5 -5
+6 -6
+7 -7
+8 -8
+9 -9
+10 -10
+11 -11
+12 -12
+13 -13
+14 -14
+15 -15
+16 -16
+17 -17
+18 -18
+19 -19
+20 -20
+21 -21
+22 -22
+23 -23
+24 -24
+25 -25
+26 -26
+27 -27
+28 -28
+29 -29
+30 -30
+31 -31
+32 -32
+33 -33
+34 -34
+35 -35
+36 -36
+37 -37
+38 -38
+39 -39
+40 -40
+41 -41
+42 -42
+43 -43
+44 -44
+45 -45
+46 -46
+47 -47
+48 -48
+49 -49
+50 -50
+51 -51
+52 -52
+53 -53
+54 -54
+55 -55
+56 -56
+57 -57
+58 -58
+59 -59
+60 -60
+61 -61
+62 -62
+63 -63
+64 -64
+65 -65
+66 -66
+67 -67
+68 -68
+69 -69
+70 -70
+71 -71
+72 -72
+73 -73
+74 -74
+75 -75
+76 -76
+77 -77
+78 -78
+79 -79
+80 -80
+81 -81
EOF
